NAME : P-n19-k2.168570.tour
COMMENT : Length = 168570
COMMENT : Found by LKH [Keld Helsgaun] Sun Dec 17 22:30:44 2017
TYPE : TOUR
DIMENSION : 20
TOUR_SECTION
1
7
8
3
2
11
13
15
5
12
20
19
6
14
16
10
9
4
17
18
-1
EOF
